1 1 2 0
1 -1 3 0
1 1 4 0
1 -1 5 0
1 -1 -6 0
1 2 -7 0
1 -2 -3 0
1 -2 -1 0
1 -2 -4 0
1 2 -6 0
1 8 9 0
1 -8 -10 0
1 8 11 0
1 -8 -3 0
1 8 12 0
1 8 -13 0
1 8 14 0
1 8 4 0
1 -8 -6 0
1 -11 9 0
1 -11 10 0
1 -11 15 0
1 -11 -7 0
1 11 3 0
1 -11 -13 0
1 -11 4 0
1 11 -6 0
1 3 -16 0
1 -3 -17 0
1 -3 18 0
1 3 -11 0
1 -3 2 0
1 3 19 0
1 3 20 0
1 -3 -21 0
1 -3 22 0
1 -3 8 0
1 -3 -1 0
1 -3 6 0
1 -6 -23 0
1 -6 16 0
1 6 -17 0
1 -6 18 0
1 6 -11 0
1 6 2 0
1 -6 3 0
1 -6 20 0
1 -6 21 0
1 -6 22 0
1 -6 -8 0
1 -6 1 0
1 -7 16 0
1 7 24 0
1 7 11 0
1 7 -2 0
1 7 -25 0
1 7 20 0
1 7 -26 0
1 7 27 0
1 7 -8 0
1 -7 -1 0
1 -7 -4 0
1 4 -16 0
1 4 -28 0
1 4 -24 0
1 -4 -11 0
1 4 -2 0
1 4 7 0
1 -4 -27 0
1 4 -8 0
1 4 -1 0
1 4 -29 0
1 22 9 0
1 -22 -10 0
1 -22 -18 0
1 -22 -3 0
1 22 12 0
1 22 -13 0
1 22 27 0
1 -22 6 0
1 18 -9 0
1 18 10 0
1 -18 24 0
1 -18 -3 0
1 18 -12 0
1 -18 -13 0
1 -18 -22 0
1 18 -6 0
1 21 9 0
1 21 -10 0
1 -21 30 0
1 -21 31 0
1 21 3 0
1 21 12 0
1 21 13 0
1 -21 32 0
1 21 -26 0
1 21 -33 0
1 21 -6 0
1 -17 -9 0
1 17 10 0
1 17 30 0
1 -17 -28 0
1 17 -31 0
1 -17 -3 0
1 17 12 0
1 17 13 0
1 -17 -32 0
1 -17 -33 0
1 17 6 0
1 13 34 0
1 13 35 0
1 -13 10 0
1 -13 -17 0
1 -13 18 0
1 -13 11 0
1 13 36 0
1 13 37 0
1 13 38 0
1 13 39 0
1 -13 21 0
1 13 -22 0
1 -13 -8 0
1 13 -40 0
1 -10 35 0
1 -10 -41 0
1 10 17 0
1 -10 -18 0
1 10 11 0
1 -10 -36 0
1 -10 -37 0
1 10 -38 0
1 -10 13 0
1 -10 -21 0
1 10 22 0
1 10 8 0
1 10 -40 0
1 -12 9 0
1 -12 -42 0
1 -12 -16 0
1 12 -17 0
1 12 18 0
1 -12 11 0
1 12 36 0
1 -12 -43 0
1 12 20 0
1 -12 22 0
1 12 8 0
1 9 42 0
1 -9 -44 0
1 9 16 0
1 9 -17 0
1 -9 -18 0
1 -9 -11 0
1 -9 -36 0
1 9 -12 0
1 9 45 0
1 -9 -20 0
1 9 -21 0
1 9 22 0
1 -9 -8 0
1 9 40 0
1 -38 -35 0
1 38 -10 0
1 38 30 0
1 38 13 0
1 -38 20 0
1 38 32 0
1 38 -33 0
1 35 -10 0
1 -35 30 0
1 -35 31 0
1 35 -13 0
1 -35 32 0
1 -35 -33 0
1 37 34 0
1 37 -30 0
1 -37 31 0
1 37 -45 0
1 -37 -13 0
1 37 32 0
1 37 -33 0
1 34 42 0
1 -34 30 0
1 -34 31 0
1 34 -37 0
1 -34 -13 0
1 34 -32 0
1 -34 33 0
1 33 34 0
1 33 -35 0
1 -33 17 0
1 -33 -31 0
1 33 -46 0
1 -33 37 0
1 33 38 0
1 -33 21 0
1 33 47 0
1 33 48 0
1 -31 -34 0
1 31 -35 0
1 31 -17 0
1 -31 49 0
1 -31 46 0
1 31 38 0
1 31 -21 0
1 31 33 0
1 31 -48 0
1 32 34 0
1 32 -35 0
1 32 -17 0
1 32 30 0
1 32 -46 0
1 -32 -36 0
1 -32 -37 0
1 32 -38 0
1 -32 -21 0
1 -32 50 0
1 32 -48 0
1 32 -51 0
1 32 -40 0
1 30 34 0
1 30 35 0
1 30 -17 0
1 30 52 0
1 -30 46 0
1 -30 53 0
1 -30 -37 0
1 30 38 0
1 -30 -21 0
1 30 32 0
1 -30 -48 0
1 -30 51 0
1 5 -54 0
1 5 -55 0
1 5 -56 0
1 5 57 0
1 5 1 0
1 58 54 0
1 58 -55 0
1 -58 -2 0
1 -58 -56 0
1 58 -57 0
1 -58 5 0
1 -14 -54 0
1 -14 -55 0
1 -14 -59 0
1 14 -60 0
1 -14 15 0
1 -14 56 0
1 14 57 0
1 -14 61 0
1 14 62 0
1 14 8 0
1 -15 -54 0
1 15 -55 0
1 15 59 0
1 15 60 0
1 -15 11 0
1 15 56 0
1 -15 57 0
1 15 61 0
1 -15 -62 0
1 15 -14 0
1 55 -28 0
1 -55 -63 0
1 55 15 0
1 -55 26 0
1 55 27 0
1 -55 14 0
1 -55 5 0
1 -57 -28 0
1 -57 24 0
1 -57 -15 0
1 57 58 0
1 -57 64 0
1 -57 26 0
1 -57 -27 0
1 -57 -14 0
1 57 5 0
1 -54 -65 0
1 54 -15 0
1 54 -58 0
1 54 -56 0
1 54 14 0
1 -54 5 0
1 56 -15 0
1 -56 -58 0
1 56 66 0
1 -56 -14 0
1 -56 5 0
1 -27 55 0
1 27 59 0
1 27 -24 0
1 -27 -60 0
1 -27 57 0
1 -27 61 0
1 -27 62 0
1 -27 22 0
1 -27 4 0
1 24 -55 0
1 -24 59 0
1 24 -18 0
1 24 7 0
1 -24 -61 0
1 -24 -62 0
1 24 4 0
1 26 -55 0
1 26 28 0
1 -26 59 0
1 26 60 0
1 26 -67 0
1 -26 68 0
1 26 57 0
1 26 61 0
1 -26 -21 0
1 26 -62 0
1 -26 -69 0
1 26 70 0
1 -26 -4 0
1 -28 -62 0
1 28 -55 0
1 28 -59 0
1 28 60 0
1 28 67 0
1 28 -68 0
1 -28 7 0
1 28 -57 0
1 -28 61 0
1 28 26 0
1 -28 -69 0
1 28 -70 0
1 28 4 0
1 60 71 0
1 60 62 0
1 -60 42 0
1 -60 16 0
1 60 -28 0
1 -60 -24 0
1 60 -72 0
1 60 15 0
1 -60 -73 0
1 60 -45 0
1 60 -20 0
1 60 27 0
1 60 14 0
1 62 -71 0
1 62 42 0
1 -62 16 0
1 -62 28 0
1 -62 -24 0
1 62 -60 0
1 -62 -15 0
1 -62 73 0
1 -62 -20 0
1 62 26 0
1 62 -74 0
1 62 27 0
1 -62 14 0
1 59 71 0
1 -59 -28 0
1 59 -75 0
1 59 -24 0
1 59 -15 0
1 59 73 0
1 59 61 0
1 59 26 0
1 59 27 0
1 59 14 0
1 -61 -71 0
1 -61 28 0
1 61 24 0
1 61 15 0
1 -61 -73 0
1 61 26 0
1 -61 -76 0
1 -61 27 0
1 -61 14 0
1 -20 9 0
1 -20 16 0
1 -20 60 0
1 -20 -67 0
1 20 68 0
1 20 7 0
1 -20 3 0
1 20 12 0
1 20 -38 0
1 20 62 0
1 20 69 0
1 -20 -70 0
1 20 4 0
1 20 -6 0
1 -16 9 0
1 16 -60 0
1 16 -67 0
1 16 68 0
1 16 -7 0
1 -16 -3 0
1 -16 -12 0
1 -16 -20 0
1 -16 62 0
1 -16 69 0
1 -16 4 0
1 -45 -23 0
1 45 -9 0
1 -45 42 0
1 -45 -60 0
1 -45 -67 0
1 -45 -68 0
1 45 -25 0
1 -45 12 0
1 45 37 0
1 -45 62 0
1 -45 69 0
1 -45 -70 0
1 45 29 0
1 42 -23 0
1 42 34 0
1 -42 9 0
1 42 60 0
1 -42 67 0
1 -42 68 0
1 42 -25 0
1 -42 19 0
1 42 12 0
1 42 45 0
1 42 62 0
1 -42 69 0
1 -42 70 0
1 -42 -29 0
1 68 42 0
1 68 16 0
1 -68 -28 0
1 68 77 0
1 68 53 0
1 68 78 0
1 -68 -36 0
1 -68 45 0
1 68 -20 0
1 68 -26 0
1 -68 -70 0
1 68 -79 0
1 -68 -51 0
1 -70 -42 0
1 -70 28 0
1 -70 53 0
1 70 -36 0
1 70 80 0
1 70 45 0
1 -70 20 0
1 -70 26 0
1 -70 -79 0
1 70 -51 0
1 70 40 0
1 -67 42 0
1 67 -16 0
1 67 -28 0
1 -67 -81 0
1 -67 -77 0
1 -67 82 0
1 67 -73 0
1 -67 20 0
1 -67 26 0
1 -67 -69 0
1 67 79 0
1 67 -83 0
1 69 -71 0
1 69 -42 0
1 -69 16 0
1 -69 -28 0
1 -69 -67 0
1 -69 -77 0
1 69 82 0
1 -69 73 0
1 69 45 0
1 -69 20 0
1 -69 26 0
1 -69 -79 0
1 69 83 0
1 36 -9 0
1 36 10 0
1 36 -30 0
1 36 68 0
1 36 25 0
1 36 -73 0
1 36 -12 0
1 -36 -19 0
1 -36 13 0
1 -36 70 0
1 -36 -29 0
1 -36 -40 0
1 40 71 0
1 -40 9 0
1 40 -10 0
1 -40 -30 0
1 40 68 0
1 40 25 0
1 -40 -36 0
1 40 -19 0
1 40 12 0
1 -40 13 0
1 40 -70 0
1 -53 -23 0
1 -53 -44 0
1 53 41 0
1 53 -68 0
1 -53 -82 0
1 -53 -25 0
1 -53 -43 0
1 -53 39 0
1 53 -32 0
1 -53 70 0
1 -53 -51 0
1 53 -29 0
1 -51 23 0
1 51 -44 0
1 51 41 0
1 -51 -30 0
1 -51 -68 0
1 -51 -53 0
1 -51 25 0
1 51 -19 0
1 -51 -43 0
1 51 39 0
1 -51 32 0
1 51 29 0
1 -51 70 0
1 -51 -83 0
1 -19 23 0
1 19 84 0
1 -19 -85 0
1 19 -46 0
1 19 53 0
1 -19 36 0
1 -19 3 0
1 19 -45 0
1 19 86 0
1 19 87 0
1 -19 48 0
1 19 -51 0
1 -19 40 0
1 23 -42 0
1 -23 -84 0
1 23 -85 0
1 23 -53 0
1 23 36 0
1 23 -19 0
1 23 -45 0
1 -23 -6 0
1 23 86 0
1 -23 -87 0
1 -23 -48 0
1 23 51 0
1 -23 40 0
1 -25 42 0
1 -25 -84 0
1 25 88 0
1 -25 -77 0
1 25 53 0
1 -25 7 0
1 25 36 0
1 25 45 0
1 -25 -89 0
1 25 79 0
1 -25 -51 0
1 -25 -40 0
1 -29 -84 0
1 -29 88 0
1 29 -77 0
1 29 -53 0
1 -29 -25 0
1 29 -45 0
1 -29 -4 0
1 29 86 0
1 -29 89 0
1 29 79 0
1 29 51 0
1 29 40 0
1 -46 23 0
1 -46 -44 0
1 -46 30 0
1 -46 -41 0
1 46 -31 0
1 -46 77 0
1 -46 -19 0
1 46 39 0
1 -46 -32 0
1 46 -33 0
1 -46 -48 0
1 -48 23 0
1 48 -44 0
1 -48 41 0
1 48 -30 0
1 -48 31 0
1 -48 46 0
1 -48 -19 0
1 48 -43 0
1 -48 39 0
1 -48 -32 0
1 48 -33 0
1 48 79 0
1 85 23 0
1 -85 44 0
1 85 41 0
1 85 -52 0
1 85 -49 0
1 85 -19 0
1 -85 -43 0
1 85 39 0
1 85 -50 0
1 -85 -47 0
1 87 23 0
1 87 -44 0
1 87 -52 0
1 87 49 0
1 87 85 0
1 87 -19 0
1 -87 39 0
1 87 50 0
1 -87 47 0
1 87 -89 0
1 -39 -41 0
1 -39 90 0
1 -39 91 0
1 -39 -85 0
1 -39 46 0
1 39 13 0
1 -39 92 0
1 39 -93 0
1 39 -87 0
1 39 51 0
1 -41 -10 0
1 41 90 0
1 -41 91 0
1 41 85 0
1 -41 46 0
1 -41 -53 0
1 41 39 0
1 41 93 0
1 41 -48 0
1 41 51 0
1 43 44 0
1 43 -94 0
1 -43 -84 0
1 43 -85 0
1 -43 46 0
1 -43 -53 0
1 43 -12 0
1 -43 95 0
1 43 -86 0
1 43 87 0
1 43 48 0
1 43 51 0
1 -44 9 0
1 -44 94 0
1 -44 -84 0
1 -44 -85 0
1 44 -46 0
1 44 53 0
1 -44 43 0
1 -44 95 0
1 -44 86 0
1 -44 87 0
1 -44 48 0
1 44 51 0
1 -91 41 0
1 91 -52 0
1 -91 -49 0
1 -91 -84 0
1 91 -50 0
1 -91 39 0
1 -91 93 0
1 91 -47 0
1 -93 41 0
1 93 -91 0
1 -93 49 0
1 -93 39 0
1 -93 -86 0
1 -90 -41 0
1 90 -52 0
1 -90 49 0
1 90 -39 0
1 -90 50 0
1 90 47 0
1 92 41 0
1 92 -90 0
1 -92 -52 0
1 -92 -49 0
1 -92 -39 0
1 -92 -95 0
1 92 -50 0
1 -47 90 0
1 47 -91 0
1 -47 -49 0
1 -47 -85 0
1 47 -92 0
1 47 -33 0
1 -49 90 0
1 -49 -31 0
1 -49 -92 0
1 49 93 0
1 -49 -87 0
1 -49 -47 0
1 -50 52 0
1 50 -91 0
1 50 -85 0
1 -50 92 0
1 50 -32 0
1 -50 -93 0
1 50 87 0
1 -52 -30 0
1 52 90 0
1 52 -91 0
1 -52 85 0
1 -52 -92 0
1 -52 -93 0
1 52 -87 0
1 -73 -71 0
1 -73 65 0
1 73 -63 0
1 -73 59 0
1 -73 -60 0
1 73 -67 0
1 73 -36 0
1 -73 66 0
1 73 64 0
1 73 61 0
1 73 -62 0
1 -71 65 0
1 71 -59 0
1 -71 60 0
1 -71 73 0
1 -71 66 0
1 -71 -64 0
1 71 -61 0
1 -71 62 0
1 71 -69 0
1 -71 40 0
1 -82 -65 0
1 82 -63 0
1 82 72 0
1 -82 -67 0
1 82 -53 0
1 -82 66 0
1 -82 64 0
1 82 76 0
1 82 74 0
1 82 -69 0
1 -82 -83 0
1 83 -65 0
1 -83 63 0
1 -83 -75 0
1 83 -72 0
1 83 -67 0
1 -83 82 0
1 -83 -66 0
1 -83 -64 0
1 -83 76 0
1 -83 -74 0
1 83 -69 0
1 -83 51 0
1 -63 -71 0
1 -63 55 0
1 -63 -77 0
1 -63 82 0
1 -63 73 0
1 63 -64 0
1 -63 -89 0
1 63 79 0
1 63 83 0
1 64 71 0
1 -64 -63 0
1 64 -88 0
1 -64 -77 0
1 -64 -82 0
1 64 -73 0
1 -64 -57 0
1 64 -89 0
1 64 -79 0
1 64 83 0
1 -65 71 0
1 65 -54 0
1 65 -82 0
1 -65 -73 0
1 -65 -66 0
1 65 83 0
1 66 71 0
1 -66 -65 0
1 -66 82 0
1 -66 -73 0
1 66 83 0
1 -77 63 0
1 77 -75 0
1 77 72 0
1 77 67 0
1 77 -46 0
1 77 68 0
1 -77 -25 0
1 -77 -64 0
1 -77 76 0
1 77 -74 0
1 77 -69 0
1 77 -70 0
1 77 -79 0
1 -77 29 0
1 -79 63 0
1 -79 -72 0
1 -79 -67 0
1 -79 70 0
1 -79 -68 0
1 -79 -77 0
1 -79 25 0
1 -79 64 0
1 79 -76 0
1 79 74 0
1 -79 -69 0
1 79 -48 0
1 79 -29 0
1 -88 -63 0
1 88 75 0
1 -88 -72 0
1 -88 85 0
1 88 -81 0
1 -88 -78 0
1 88 -25 0
1 -88 64 0
1 -88 -76 0
1 88 74 0
1 88 -89 0
1 -88 -80 0
1 88 29 0
1 89 -63 0
1 -89 -75 0
1 -89 72 0
1 -89 -88 0
1 89 -81 0
1 -89 -78 0
1 89 -25 0
1 89 -64 0
1 -89 76 0
1 -89 74 0
1 89 -87 0
1 -89 -80 0
1 89 -29 0
1 72 74 0
1 72 94 0
1 72 -60 0
1 72 -84 0
1 72 88 0
1 -72 77 0
1 72 -82 0
1 72 -95 0
1 -72 -86 0
1 72 89 0
1 -72 79 0
1 -72 -83 0
1 -74 -88 0
1 74 77 0
1 -74 -82 0
1 74 -95 0
1 -74 62 0
1 74 -89 0
1 -74 -83 0
1 -75 -88 0
1 75 -77 0
1 75 82 0
1 75 -76 0
1 -75 -89 0
1 -75 -79 0
1 75 -83 0
1 76 -75 0
1 76 -88 0
1 -76 -77 0
1 76 82 0
1 76 89 0
1 76 -79 0
1 -76 -83 0
1 -84 -23 0
1 84 44 0
1 -84 74 0
1 84 91 0
1 84 72 0
1 84 81 0
1 -84 -78 0
1 -84 -25 0
1 84 -19 0
1 84 -86 0
1 84 -96 0
1 84 -80 0
1 -84 29 0
1 86 23 0
1 -86 -44 0
1 86 84 0
1 -86 -72 0
1 86 -81 0
1 -86 78 0
1 -86 25 0
1 86 19 0
1 -86 -93 0
1 86 74 0
1 -86 -96 0
1 86 -80 0
1 86 29 0
1 -94 44 0
1 -94 -90 0
1 -94 -72 0
1 94 81 0
1 94 -78 0
1 -94 -95 0
1 94 -74 0
1 -94 96 0
1 -94 80 0
1 -95 94 0
1 -95 72 0
1 95 81 0
1 -95 -78 0
1 95 43 0
1 -95 -92 0
1 95 -74 0
1 -95 -96 0
1 -95 80 0
1 -78 94 0
1 78 -84 0
1 78 88 0
1 -78 -68 0
1 78 95 0
1 78 -86 0
1 78 89 0
1 -78 80 0
1 -80 -94 0
1 -80 -84 0
1 -80 -88 0
1 -80 -78 0
1 80 95 0
1 -80 -86 0
1 80 89 0
1 80 70 0
1 81 94 0
1 81 -84 0
1 81 -67 0
1 81 -88 0
1 -81 -95 0
1 81 -86 0
1 -81 89 0
1 -96 -94 0
1 -96 84 0
1 96 88 0
1 96 81 0
1 -96 -86 0
1 96 -69 0
1 96 89 0
